Route #1: 47 49 50 51 48 45 46 44 42 43
Route #2: 81 78 76 71 70 73 77 79 80 63
Route #3: 98 96 95 94 92 93 97 100 99 2
Route #4: 32 33 34 36 39 38 37 35 31 52
Route #5: 91 89 88 85 84 82 83 86 87 90
Route #6: 20 24 25 27 29 30 28 26 22 21
Route #7: 57 55 54 53 56 58 60 59 40 41
Route #8: 67 65 62 74 72 61 64 68 66 69
Route #9: 23 13 17 18 19 15 16 14 12 10
Route #10: 5 3 7 8 11 9 6 4 1 75
Cost 821.745826